p cnf 132 437
1 2 -3 0
-1 -2 -3 0
1 -2 3 0
-1 2 3 0
-6 -4 0
-6 5 0
4 -5 6 0
-8 -6 0
-8 7 0
6 -7 8 0
8 -9 -10 0
-8 9 -10 0
8 9 10 0
-8 -9 10 0
11 6 -12 0
-11 -6 -12 0
11 -6 12 0
-11 6 12 0
13 -10 0
13 12 0
10 -12 -13 0
7 1 -14 0
-7 -1 -14 0
7 -1 14 0
-7 1 14 0
14 -8 -15 0
-14 8 -15 0
14 8 15 0
-14 -8 15 0
13 -15 -16 0
-13 15 -16 0
13 15 16 0
-13 -15 16 0
-18 -9 0
-18 17 0
9 -17 18 0
-20 -19 0
-20 -7 0
19 7 20 0
24 -22 0
24 -23 0
22 23 -24 0
25 21 0
25 24 0
-21 -24 -25 0
17 -25 -26 0
-17 25 -26 0
17 25 26 0
-17 -25 26 0
-27 -20 0
-27 26 0
20 -26 27 0
-29 7 0
-29 4 0
-7 -4 29 0
30 28 0
30 -29 0
-28 29 -30 0
27 30 -31 0
-27 -30 -31 0
27 -30 31 0
-27 30 31 0
32 18 0
32 -31 0
-18 31 -32 0
33 -16 0
33 -32 0
16 32 -33 0
34 4 0
34 -18 0
-4 18 -34 0
-35 33 0
-35 -34 0
-33 34 35 0
3 -35 -36 0
-3 35 -36 0
3 35 36 0
-3 -35 36 0
-3 -37 0
3 -37 0
37 38 -39 0
-37 -38 -39 0
37 -38 39 0
-37 38 39 0
-40 -36 0
-40 39 0
36 -39 40 0
41 -22 0
41 22 0
42 22 0
42 -41 0
-22 41 -42 0
-43 -42 0
-43 7 0
42 -7 43 0
44 7 0
44 43 0
-7 -43 -44 0
-45 -44 0
-45 -28 0
44 28 45 0
37 -5 -46 0
-37 5 -46 0
37 5 46 0
-37 -5 46 0
45 -46 -47 0
-45 46 -47 0
45 46 47 0
-45 -46 47 0
13 24 -48 0
-13 -24 -48 0
13 -24 48 0
-13 24 48 0
49 48 0
49 1 0
-48 -1 -49 0
47 -49 -50 0
-47 49 -50 0
47 49 50 0
-47 -49 50 0
51 -23 0
51 -7 0
23 7 -51 0
-52 -14 0
-52 -51 0
14 51 52 0
-53 28 0
-53 -3 0
-28 3 53 0
-54 -52 0
-54 53 0
52 -53 54 0
55 -6 0
55 22 0
6 -22 -55 0
56 51 0
56 55 0
-51 -55 -56 0
-57 54 0
-57 56 0
-54 -56 57 0
50 57 -58 0
-50 -57 -58 0
50 -57 58 0
-50 57 58 0
-59 -6 0
-59 34 0
6 -34 59 0
60 -34 0
60 -37 0
34 37 -60 0
61 -38 0
61 -60 0
38 60 -61 0
61 -10 -62 0
-61 10 -62 0
61 10 62 0
-61 -10 62 0
63 -13 0
63 -62 0
13 62 -63 0
-64 -59 0
-64 63 0
59 -63 64 0
-66 65 0
-66 23 0
-65 -23 66 0
67 8 0
67 66 0
-8 -66 -67 0
-64 -67 -68 0
64 67 -68 0
-64 67 68 0
64 -67 68 0
69 -58 0
69 -68 0
58 68 -69 0
70 37 0
70 51 0
-37 -51 -70 0
-71 53 0
-71 -15 0
-53 15 71 0
72 -12 0
72 -71 0
12 71 -72 0
-73 -38 0
-73 72 0
38 -72 73 0
-74 -70 0
-74 -73 0
70 73 74 0
-75 65 0
-75 -6 0
-65 6 75 0
-76 60 0
-76 75 0
-60 -75 76 0
-77 52 0
-77 -76 0
-52 76 77 0
78 26 0
78 77 0
-26 -77 -78 0
-79 -24 0
-79 1 0
24 -1 79 0
-79 -65 -80 0
79 65 -80 0
-79 65 80 0
79 -65 80 0
81 37 0
81 -28 0
-37 28 -81 0
-82 80 0
-82 81 0
-80 -81 82 0
83 -78 0
83 82 0
78 -82 -83 0
-84 12 -85 0
84 -12 -85 0
-84 -12 85 0
84 12 85 0
86 83 0
86 85 0
-83 -85 -86 0
87 -74 0
87 -86 0
74 86 -87 0
88 -1 0
88 14 0
1 -14 -88 0
89 -37 0
89 -88 0
37 88 -89 0
-48 -89 -90 0
48 89 -90 0
-48 89 90 0
48 -89 90 0
91 48 0
91 -65 0
-48 65 -91 0
92 91 0
92 -55 0
-91 55 -92 0
93 41 0
93 -24 0
-41 24 -93 0
-94 -93 0
-94 43 0
93 -43 94 0
-19 -88 -95 0
19 88 -95 0
-19 88 95 0
19 -88 95 0
96 -95 0
96 -34 0
95 34 -96 0
41 -34 -97 0
-41 34 -97 0
41 34 97 0
-41 -34 97 0
-96 -97 -98 0
96 97 -98 0
-96 97 98 0
96 -97 98 0
94 -98 -99 0
-94 98 -99 0
94 98 99 0
-94 -98 99 0
-27 -65 -100 0
27 65 -100 0
-27 65 100 0
27 -65 100 0
101 -99 0
101 -100 0
99 100 -101 0
-102 -19 0
-102 41 0
19 -41 102 0
103 -71 0
103 -102 0
71 102 -103 0
-104 101 0
-104 -103 0
-101 103 104 0
-92 -104 -105 0
92 104 -105 0
-92 104 105 0
92 -104 105 0
-106 90 0
-106 105 0
-90 -105 106 0
107 -87 0
107 106 0
87 -106 -107 0
108 69 0
108 -107 0
-69 107 -108 0
51 -79 -109 0
-51 79 -109 0
51 79 109 0
-51 -79 109 0
-110 14 0
-110 27 0
-14 -27 110 0
30 -110 -111 0
-30 110 -111 0
30 110 111 0
-30 -110 111 0
-112 23 0
-112 -111 0
-23 111 112 0
-109 112 -113 0
109 -112 -113 0
-109 -112 113 0
109 112 113 0
-52 27 -114 0
52 -27 -114 0
-52 -27 114 0
52 27 114 0
-115 -17 0
-115 114 0
17 -114 115 0
-116 -115 0
-116 25 0
115 -25 116 0
117 116 0
117 44 0
-116 -44 -117 0
118 -72 0
118 -10 0
72 10 -118 0
-119 -61 0
-119 -118 0
61 118 119 0
-120 -23 0
-120 3 0
23 -3 120 0
-121 120 0
-121 -91 0
-120 91 121 0
-119 -121 -122 0
119 121 -122 0
-119 121 122 0
119 -121 122 0
-123 10 0
-123 -48 0
-10 48 123 0
124 -9 0
124 -1 0
9 1 -124 0
125 124 0
125 3 0
-124 -3 -125 0
-126 19 0
-126 125 0
-19 -125 126 0
127 123 0
127 -126 0
-123 126 -127 0
-128 -122 0
-128 127 0
122 -127 128 0
-129 117 0
-129 128 0
-117 -128 129 0
-130 113 0
-130 129 0
-113 -129 130 0
108 130 -131 0
-108 -130 -131 0
108 -130 131 0
-108 130 131 0
40 131 -132 0
-40 -131 -132 0
40 -131 132 0
-40 131 132 0
-49 35 0
-25 -128 -50 73 0
131 20 30 3 -67 0
-36 61 -68 0
116 -89 -26 15 -42 0
63 -26 -95 18 0
-96 -42 -115 89 44 23 0
2 -108 -64 -4 -58 0
-35 -26 113 0
17 26 111 -98 0
130 74 -23 51 85 -47 0
-126 -122 0
-63 11 -10 0
-66 -43 -119 131 -16 -84 0
25 -5 -111 91 -41 0
-40 -36 0
64 98 44 -71 90 0
-95 29 74 49 0
-121 -2 96 47 -81 0
-105 -96 0
-16 95 -101 0
-108 -117 -73 -36 -59 0
59 -33 0
-91 -115 119 -130 -9 0
121 -16 0
132 -76 -83 0
-42 -17 121 20 0
90 -78 -58 102 -35 0
73 -31 0
-44 -72 -23 28 66 0
109 -131 9 -62 -60 0
18 -57 -85 89 -66 -42 0
14 25 -19 40 0
88 -67 -84 -63 0
82 108 -115 52 -2 -40 0
-18 -70 0
-76 -73 -115 0
-94 -82 43 66 -7 -55 0
-100 16 0
104 55 -18 -2 -98 -5 0
60 129 21 42 -104 -47 0
-128 -58 -91 -34 -30 0
43 -76 -8 -22 0
-129 86 -108 14 0
-1 33 0
105 26 24 -70 -89 0
71 -111 65 46 -93 0
84 100 0
40 -38 -41 103 86 0
-2 -50 -13 -54 -88 0
-82 -44 0
-67 52 41 0
-68 -95 70 -80 31 2 0
65 29 6 -22 -67 -126 0
128 -17 -18 0
-13 10 -53 127 39 0
-118 109 47 41 72 0
132 0
